21° run output:
{
    "Function": "kroA300.tsp",
    "Problem dimension": [
        158,
        187,
        27,
        293,
        216,
        49,
        94,
        267,
        160,
        136,
        90,
        264,
        22,
        60,
        252,
        164,
        169,
        245,
        230,
        131,
        42,
        233,
        140,
        167,
        96,
        107,
        174,
        9,
        222,
        88,
        37,
        151,
        59,
        239,
        111,
        150,
        276,
        209,
        62,
        78,
        185,
        254,
        186,
        85,
        195,
        217,
        232,
        262,
        48,
        45,
        25,
        194,
        168,
        214,
        14,
        52,
        73,
        192,
        269,
        30,
        39,
        161,
        65,
        289,
        3,
        248,
        8,
        152,
        26,
        5,
        182,
        127,
        57,
        128,
        250,
        87,
        153,
        218,
        56,
        116,
        249,
        46,
        219,
        203,
        296,
        162,
        244,
        29,
        291,
        4,
        38,
        147,
        189,
        63,
        204,
        86,
        103,
        47,
        220,
        294,
        132,
        175,
        179,
        193,
        236,
        297,
        55,
        279,
        257,
        157,
        64,
        198,
        81,
        212,
        237,
        149,
        181,
        75,
        20,
        228,
        139,
        225,
        215,
        33,
        126,
        54,
        205,
        95,
        146,
        213,
        13,
        242,
        271,
        58,
        275,
        89,
        145,
        71,
        227,
        112,
        282,
        256,
        288,
        99,
        68,
        118,
        122,
        115,
        166,
        72,
        234,
        200,
        163,
        207,
        50,
        247,
        35,
        251,
        191,
        11,
        173,
        283,
        180,
        197,
        67,
        129,
        124,
        40,
        177,
        172,
        221,
        253,
        113,
        7,
        82,
        281,
        206,
        84,
        238,
        170,
        231,
        287,
        93,
        290,
        70,
        106,
        79,
        210,
        235,
        61,
        41,
        298,
        19,
        223,
        123,
        53,
        184,
        74,
        138,
        278,
        102,
        76,
        285,
        270,
        255,
        261,
        280,
        137,
        117,
        24,
        16,
        265,
        199,
        69,
        101,
        156,
        12,
        258,
        121,
        15,
        263,
        286,
        36,
        241,
        119,
        144,
        114,
        92,
        273,
        105,
        229,
        188,
        2,
        0,
        134,
        28,
        148,
        83,
        43,
        91,
        77,
        154,
        108,
        142,
        21,
        292,
        268,
        1,
        10,
        125,
        97,
        226,
        266,
        66,
        274,
        211,
        260,
        224,
        196,
        171,
        31,
        6,
        17,
        272,
        176,
        159,
        284,
        135,
        295,
        109,
        18,
        100,
        208,
        201,
        34,
        143,
        190,
        120,
        44,
        80,
        133,
        240,
        178,
        51,
        165,
        130,
        141,
        259,
        246,
        243,
        110,
        98,
        299,
        277,
        104,
        23,
        183,
        32,
        155,
        202
    ],
    "Global Optimum": 0,
    "Algorithm": "Genetic algorithm",
    "Parameters": {
        "population": 30,
        "offspring": 30,
        "mutation probability": 0.0033333333333333335,
        "crossover probability": 0.9
    },
    "Fitness": 350756,
    "Solution": [
        158,
        187,
        27,
        293,
        216,
        49,
        94,
        267,
        160,
        136,
        90,
        264,
        22,
        60,
        252,
        164,
        169,
        245,
        230,
        131,
        42,
        233,
        140,
        167,
        96,
        107,
        174,
        9,
        222,
        88,
        37,
        151,
        59,
        239,
        111,
        150,
        276,
        209,
        62,
        78,
        185,
        254,
        186,
        85,
        195,
        217,
        232,
        262,
        48,
        45,
        25,
        194,
        168,
        214,
        14,
        52,
        73,
        192,
        269,
        30,
        39,
        161,
        65,
        289,
        3,
        248,
        8,
        152,
        26,
        5,
        182,
        127,
        57,
        128,
        250,
        87,
        153,
        218,
        56,
        116,
        249,
        46,
        219,
        203,
        296,
        162,
        244,
        29,
        291,
        4,
        38,
        147,
        189,
        63,
        204,
        86,
        103,
        47,
        220,
        294,
        132,
        175,
        179,
        193,
        236,
        297,
        55,
        279,
        257,
        157,
        64,
        198,
        81,
        212,
        237,
        149,
        181,
        75,
        20,
        228,
        139,
        225,
        215,
        33,
        126,
        54,
        205,
        95,
        146,
        213,
        13,
        242,
        271,
        58,
        275,
        89,
        145,
        71,
        227,
        112,
        282,
        256,
        288,
        99,
        68,
        118,
        122,
        115,
        166,
        72,
        234,
        200,
        163,
        207,
        50,
        247,
        35,
        251,
        191,
        11,
        173,
        283,
        180,
        197,
        67,
        129,
        124,
        40,
        177,
        172,
        221,
        253,
        113,
        7,
        82,
        281,
        206,
        84,
        238,
        170,
        231,
        287,
        93,
        290,
        70,
        106,
        79,
        210,
        235,
        61,
        41,
        298,
        19,
        223,
        123,
        53,
        184,
        74,
        138,
        278,
        102,
        76,
        285,
        270,
        255,
        261,
        280,
        137,
        117,
        24,
        16,
        265,
        199,
        69,
        101,
        156,
        12,
        258,
        121,
        15,
        263,
        286,
        36,
        241,
        119,
        144,
        114,
        92,
        273,
        105,
        229,
        188,
        2,
        0,
        134,
        28,
        148,
        83,
        43,
        91,
        77,
        154,
        108,
        142,
        21,
        292,
        268,
        1,
        10,
        125,
        97,
        226,
        266,
        66,
        274,
        211,
        260,
        224,
        196,
        171,
        31,
        6,
        17,
        272,
        176,
        159,
        284,
        135,
        295,
        109,
        18,
        100,
        208,
        201,
        34,
        143,
        190,
        120,
        44,
        80,
        133,
        240,
        178,
        51,
        165,
        130,
        141,
        259,
        246,
        243,
        110,
        98,
        299,
        277,
        104,
        23,
        183,
        32,
        155,
        202
    ],
    "Nb of functions evaluations": 50010,
    "Computational time in seconds": 142.3742949962616,
    "Stopping criterion in evaluations": 50000
}